Instance: Data/Instances_txt/inst_40_50_3.txt
SetUpTime: 10.268186092376709

Gurobi 10.0.1 (mac64[x86]) logging started Sa 22 Jul 10:05:51 2023

Set parameter LogFile to value "Output/MILP_inst_40_50_3_2023-07-22_10-05-40.txt"
Set parameter TimeLimit to value 3000

Gurobi 10.0.1 (mac64[x86]) logging started Sa 22 Jul 10:05:51 2023

Set parameter LogFile to value "Output/MILP_inst_40_50_3_2023-07-22_10-05-40.txt"
Gurobi Optimizer version 10.0.1 build v10.0.1rc0 (mac64[x86])

CPU model: Intel(R) Core(TM) i5-1038NG7 CPU @ 2.00GHz
Thread count: 4 physical cores, 8 logical processors, using up to 8 threads

Optimize a model with 81 rows, 14878 columns and 116663 nonzeros
Model fingerprint: 0xd3211153
Variable types: 0 continuous, 14878 integer (0 binary)
Coefficient statistics:
  Matrix range     [1e+00, 1e+00]
  Objective range  [8e+00, 4e+03]
  Bounds range     [1e+00, 1e+00]
  RHS range        [1e+00, 1e+00]
Presolve removed 0 rows and 19 columns
Presolve time: 0.29s
Presolved: 81 rows, 14859 columns, 116490 nonzeros
Variable types: 0 continuous, 14859 integer (14859 binary)
Found heuristic solution: objective 26742.000000

Root relaxation: objective 5.096905e+03, 989 iterations, 0.36 seconds (0.40 work units)

    Nodes    |    Current Node    |     Objective Bounds      |     Work
 Expl Unexpl |  Obj  Depth IntInf | Incumbent    BestBd   Gap | It/Node Time

     0     0 5096.90520    0   51 26742.0000 5096.90520  80.9%     -    1s
H    0     0                    14397.000000 5096.90520  64.6%     -    1s
H    0     0                    5402.0000000 5096.90520  5.65%     -    1s
H    0     0                    5306.0000000 5096.90520  3.94%     -    1s
     0     0 5118.45304    0   52 5306.00000 5118.45304  3.53%     -    1s
     0     0 5138.38571    0   45 5306.00000 5138.38571  3.16%     -    2s
     0     0 5147.28523    0   59 5306.00000 5147.28523  2.99%     -    3s
     0     0 5156.70424    0   62 5306.00000 5156.70424  2.81%     -    3s
     0     0 5163.17370    0   63 5306.00000 5163.17370  2.69%     -    3s
     0     0 5166.84142    0   62 5306.00000 5166.84142  2.62%     -    3s
     0     0 5170.06505    0   65 5306.00000 5170.06505  2.56%     -    3s
     0     0 5174.88087    0   64 5306.00000 5174.88087  2.47%     -    3s
     0     0 5178.81731    0   61 5306.00000 5178.81731  2.40%     -    3s
     0     0 5181.25274    0   61 5306.00000 5181.25274  2.35%     -    3s
     0     0 5182.54976    0   62 5306.00000 5182.54976  2.33%     -    3s
     0     0 5183.61492    0   62 5306.00000 5183.61492  2.31%     -    3s
     0     0 5208.44384    0   74 5306.00000 5208.44384  1.84%     -    3s
     0     0 5263.28906    0   59 5306.00000 5263.28906  0.80%     -    3s
*    0     0               0    5275.0000000 5275.00000  0.00%     -    3s

Explored 1 nodes (3227 simplex iterations) in 3.77 seconds (2.42 work units)
Thread count was 8 (of 8 available processors)

Solution count 5: 5275 5306 5402 ... 26742

Optimal solution found (tolerance 1.00e-04)
Best objective 5.275000000000e+03, best bound 5.275000000000e+03, gap 0.0000%

User-callback calls 649, time in user-callback 0.00 sec

=========================

OUTPUT STATISTICS
Time since start: 14.834496974945068
SetUpTime: 10.268186092376709
Objective value: 5275.0
Gap: 0.0
Number of variables: 14878
MIP relative gap: 0.0
